TCS_Benchmarks/redos_fix/corpus2_output_distinct_3777_3776_1_0.smt2
(set-logic QF_S)
(declare-const x String)
(assert (str.in.re x (re.inter  (re.++ (re.* (re.union (re.range "\u{00}" "\u{09}") (re.range "\u{0b}" "\u{0c}") (re.range "\u{0e}" "\u{84}") (re.range "\u{86}" "\u{ff}")) ) (re.+  (re.union  (str.to.re "\u{78}") (re.union (re.range "\u{41}" "\u{46}") (re.range "\u{30}" "\u{39}"))) ))  (re.++ (re.* (re.union (re.range "\u{00}" "\u{09}") (re.range "\u{0b}" "\u{0c}") (re.range "\u{0e}" "\u{84}") (re.range "\u{86}" "\u{ff}")) ) (re.++  (str.to.re "\u{28}") (re.+  (re.union  (str.to.re "\u{78}") (re.union (re.range "\u{41}" "\u{46}") (re.range "\u{30}" "\u{39}"))) ))) )))
(check-sat)
(get-model)