TCS_Benchmarks/redos_fix/corpus2_output_distinct_3777_3776_1_0.txt
(.*)([xA-F0-9]+)
(.*)(\()([xA-F0-9]+)